50
150
100
100
99
96
95
94
92
92
90
89
89
84
82
80
80
79
74
74
72
71
69
67
67
64
62
60
60
59
58
55
51
48
47
46
45
43
42
41
41
40
38
34
33
32
27
26
24
24
23
20
